data/cplexData/model-2021-06-06handEdit.out
Problem:    
Rows:       152
Columns:    152 (152 integer, 128 binary)
Non-zeros:  390
Status:     INTEGER OPTIMAL
Objective:  Z = 920000 (MINimum)

   No.   Row name        Activity     Lower bound   Upper bound
------ ------------    ------------- ------------- -------------
     1 c_uf_1                      1                           1 
     2 c_uf_2                      1                           1 
     3 c_uf_3                      0                           0 
     4 c_uf_4                      0                           0 
     5 c_uf_5                      0                           0 
     6 c_uf_6                      0                           0 
     7 c_uf_7                      0                           0 
     8 c_uf_8                      0                           0 
     9 c_uf_9                      0                           0 
    10 c_uf_10                     0                           0 
    11 c_uf_11                     0                           0 
    12 c_uf_12                     0                           0 
    13 c_uf_13                     0                           0 
    14 c_uf_14                     0                           0 
    15 c_uf_15                     0                           0 
    16 c_uf_16                    -1                           0 
    17 c_uf_17                     0                           0 
    18 c_uf_18                     0                           0 
    19 c_uf_19                     0                           0 
    20 c_uf_20                     0                           0 
    21 c_uf_21                     0                           0 
    22 c_uf_22                     0                           0 
    23 c_uf_23                     0                           0 
    24 c_uf_24                     0                           0 
    25 c_uf_25                     0                           0 
    26 c_uf_26                     0                           0 
    27 c_uf_27                     0                           0 
    28 c_uf_28                     0                           0 
    29 c_uf_29                     0                           0 
    30 c_uf_30                     0                           0 
    31 c_uf_31                     0                           0 
    32 c_uf_32                     0                           0 
    33 c_uf_33                     0                           0 
    34 c_uf_34                     0                           0 
    35 c_uf_35                     0                           0 
    36 c_uf_36                     0                           0 
    37 c_uf_37                     0                           0 
    38 c_uf_38                     0                           0 
    39 c_uf_39                    -1                           0 
    40 c_uf_40                     0                           0 
    41 c_uf_41                     0                           0 
    42 c_uf_42                     0                           0 
    43 c_uf_43                     0                           0 
    44 c_uf_44                     0                           0 
    45 c_uf_45                     0                           0 
    46 c_uf_46                     0                           0 
    47 c_uf_47                     0                           0 
    48 c_uf_48                     0                           0 
    49 c_uf_49                     0                           0 
    50 c_uf_50                     0                           0 
    51 c_uf_51                     0                           0 
    52 c_uf_52                     0                           0 
    53 c_uf_53                     0                           0 
    54 c_uf_54                     0                           0 
    55 c_uf_55                     0                           0 
    56 c_uf_56                     0                           0 
    57 c_uf_57                     0                           0 
    58 c_uf_58                     0                           0 
    59 c_uf_59                     0                           0 
    60 c_uf_60                     0                           0 
    61 c_uf_61                     0                           0 
    62 c_uf_62                     0                           0 
    63 c_uf_63                     0                           0 
    64 c_uf_64                     0                           0 
    65 c_uf_65                     0                           0 
    66 c_uf_66                     0                           0 
    67 c_uf_67                     0                           0 
    68 c_uf_68                     0                           0 
    69 c_uf_69                     0                           0 
    70 c_uf_70                     0                           0 
    71 c_uf_71                     0                           0 
    72 c_uf_72                     0                           0 
    73 c_uf_73                     0                           0 
    74 c_uf_74                     0                           0 
    75 c_uf_75                     0                           0 
    76 c_uf_76                     0                           0 
    77 c_uf_77                     0                           0 
    78 c_uf_78                     0                           0 
    79 c_uf_79                     0                           0 
    80 c_uf_80                     0                           0 
    81 c_uf_81                     0                           0 
    82 c_uf_82                     0                           0 
    83 c_uf_83                     0                           0 
    84 c_uf_84                     0                           0 
    85 c_uf_85                     0                           0 
    86 c_uf_86                     0                           0 
    87 c_uf_87                     0                           0 
    88 c_uf_88                     0                           0 
    89 c_uf_89                     0                           0 
    90 c_uf_90                     0                           0 
    91 c_uf_91                     0                           0 
    92 c_uf_92                     0                           0 
    93 c_uf_93                     0                           0 
    94 c_uf_94                     0                           0 
    95 c_uf_95                     0                           0 
    96 c_uf_96                     0                           0 
    97 c_ud_1                     30            30               
    98 c_ud_2                    250           250               
    99 c_ud_3                     30            30               
   100 c_ud_4                    250           250               
   101 c_ud_5                     30            30               
   102 c_ud_6                    250           250               
   103 c_ud_7                     30            30               
   104 c_ud_8                    250           250               
   105 c_cpmy_1_1_Mar_1
                                   0                           0 
   106 c_cpmy_1_1_Mar_2
                                   1                           1 
   107 c_cpmy_1_1_Mar_13
                                   1                           1 
   108 c_cpmy_1_1_Mar_14
                                   1                           1 
   109 c_cpmy_2_1_Apr_1
                                   0                           0 
   110 c_cpmy_2_1_Apr_12
                                   0                           0 
   111 c_cpmy_2_1_Apr_13
                                   0                           0 
   112 c_cpmy_3_2_Mar_1
                                   0                           0 
   113 c_cpmy_3_2_Mar_2
                                   0                           1 
   114 c_cpmy_3_2_Mar_13
                                   0                           1 
   115 c_cpmy_3_2_Mar_14
                                   0                           1 
   116 c_cpmy_4_2_Apr_1
                                   0                           0 
   117 c_cpmy_4_2_Apr_12
                                   0                           1 
   118 c_cpmy_4_2_Apr_13
                                   0                           1 
   119 c_cpmy_5_3_Mar_1
                                   0                           0 
   120 c_cpmy_5_3_Mar_2
                                   0                           1 
   121 c_cpmy_5_3_Mar_13
                                   1                           1 
   122 c_cpmy_5_3_Mar_14
                                   0                           1 
   123 c_cpmy_6_3_Apr_1
                                   0                           0 
   124 c_cpmy_6_3_Apr_12
                                   1                           1 
   125 c_cpmy_6_3_Apr_13
                                   0                           1 
   126 c_cpmy_7_4_Mar_1
                                   0                           0 
   127 c_cpmy_7_4_Mar_2
                                   1                           1 
   128 c_cpmy_8_4_Apr_1
                                   0                           0 
   129 c_cpmy_9_1_Mar_1
                                   0                           0 
   130 c_cpmy_9_1_Mar_2
                                   1                           1 
   131 c_cpmy_9_1_Mar_13
                                   1                           1 
   132 c_cpmy_9_1_Mar_14
                                   1                           1 
   133 c_cpmy_10_1_Apr_1
                                   0                           0 
   134 c_cpmy_10_1_Apr_12
                                   0                           0 
   135 c_cpmy_10_1_Apr_13
                                   0                           0 
   136 c_cpmy_11_2_Mar_1
                                   0                           0 
   137 c_cpmy_11_2_Mar_2
                                   0                           1 
   138 c_cpmy_11_2_Mar_13
                                   1                           1 
   139 c_cpmy_11_2_Mar_14
                                   0                           1 
   140 c_cpmy_12_2_Apr_1
                                   0                           0 
   141 c_cpmy_12_2_Apr_12
                                   1                           1 
   142 c_cpmy_12_2_Apr_13
                                   0                           1 
   143 c_cpmy_13_3_Mar_1
                                   0                           0 
   144 c_cpmy_13_3_Mar_2
                                   1                           1 
   145 c_cpmy_13_3_Mar_13
                                   1                           1 
   146 c_cpmy_13_3_Mar_14
                                   1                           1 
   147 c_cpmy_14_3_Apr_1
                                   0                           0 
   148 c_cpmy_14_3_Apr_12
                                   0                           1 
   149 c_cpmy_14_3_Apr_13
                                   0                           1 
   150 c_cpmy_15_4_Mar_1
                                   0                           0 
   151 c_cpmy_15_4_Mar_2
                                   0                           1 
   152 c_cpmy_16_4_Apr_1
                                   0                           0 

   No. Column name       Activity     Lower bound   Upper bound
------ ------------    ------------- ------------- -------------
     1 ud_1         *             30             0               
     2 ud_2         *            150             0               
     3 ud_3         *             30             0               
     4 ud_4         *            250             0               
     5 ud_5         *             30             0               
     6 ud_6         *            200             0               
     7 ud_7         *             30             0               
     8 ud_8         *            200             0               
     9 rr_1         *              0             0               
    10 rr_2         *              0             0               
    11 rr_3         *              0             0               
    12 rr_4         *              0             0               
    13 rr_5         *              0             0               
    14 rr_6         *              0             0               
    15 rr_7         *              0             0               
    16 rr_8         *              0             0               
    17 rr_9         *              0             0               
    18 rr_10        *              0             0               
    19 rr_11        *              0             0               
    20 rr_12        *              0             0               
    21 rr_13        *              0             0               
    22 rr_14        *              0             0               
    23 rr_15        *              0             0               
    24 rr_16        *              0             0               
    25 uf_1         *              1             0             1 
    26 uf_2         *              1             0             1 
    27 uf_3         *              1             0             1 
    28 uf_89        *              1             0             1 
    29 uf_4         *              1             0             1 
    30 uf_90        *              1             0             1 
    31 uf_5         *              1             0             1 
    32 uf_91        *              1             0             1 
    33 uf_6         *              1             0             1 
    34 uf_92        *              1             0             1 
    35 uf_7         *              1             0             1 
    36 uf_93        *              1             0             1 
    37 uf_8         *              1             0             1 
    38 uf_94        *              1             0             1 
    39 uf_9         *              1             0             1 
    40 uf_10        *              1             0             1 
    41 uf_11        *              1             0             1 
    42 uf_12        *              1             0             1 
    43 uf_13        *              1             0             1 
    44 uf_14        *              1             0             1 
    45 uf_15        *              1             0             1 
    46 uf_16        *              0             0             1 
    47 cpmy_1       *              1             0             1 
    48 uf_17        *              0             0             1 
    49 cpmy_9       *              1             0             1 
    50 uf_18        *              0             0             1 
    51 cpmy_3       *              0             0             1 
    52 uf_19        *              1             0             1 
    53 cpmy_11      *              0             0             1 
    54 uf_20        *              1             0             1 
    55 cpmy_5       *              0             0             1 
    56 uf_21        *              1             0             1 
    57 cpmy_13      *              1             0             1 
    58 uf_22        *              0             0             1 
    59 cpmy_7       *              1             0             1 
    60 uf_23        *              0             0             1 
    61 cpmy_15      *              0             0             1 
    62 uf_24        *              0             0             1 
    63 cpmy_2       *              0             0             1 
    64 uf_25        *              0             0             1 
    65 cpmy_10      *              0             0             1 
    66 uf_26        *              0             0             1 
    67 cpmy_4       *              0             0             1 
    68 uf_27        *              1             0             1 
    69 cpmy_12      *              0             0             1 
    70 uf_28        *              1             0             1 
    71 cpmy_6       *              0             0             1 
    72 uf_29        *              1             0             1 
    73 cpmy_14      *              0             0             1 
    74 uf_30        *              0             0             1 
    75 cpmy_8       *              0             0             1 
    76 uf_31        *              0             0             1 
    77 cpmy_16      *              0             0             1 
    78 uf_32        *              0             0             1 
    79 uf_33        *              1             0             1 
    80 uf_34        *              1             0             1 
    81 uf_35        *              1             0             1 
    82 uf_36        *              1             0             1 
    83 uf_37        *              1             0             1 
    84 uf_38        *              1             0             1 
    85 uf_39        *              0             0             1 
    86 uf_40        *              0             0             1 
    87 uf_41        *              1             0             1 
    88 uf_42        *              1             0             1 
    89 uf_43        *              1             0             1 
    90 uf_44        *              1             0             1 
    91 uf_45        *              1             0             1 
    92 uf_46        *              1             0             1 
    93 uf_47        *              0             0             1 
    94 uf_48        *              0             0             1 
    95 uf_49        *              1             0             1 
    96 uf_50        *              1             0             1 
    97 uf_51        *              1             0             1 
    98 uf_52        *              1             0             1 
    99 uf_53        *              1             0             1 
   100 uf_54        *              1             0             1 
   101 uf_55        *              0             0             1 
   102 uf_56        *              0             0             1 
   103 uf_57        *              1             0             1 
   104 uf_58        *              1             0             1 
   105 uf_59        *              1             0             1 
   106 uf_60        *              1             0             1 
   107 uf_61        *              1             0             1 
   108 uf_62        *              1             0             1 
   109 uf_63        *              0             0             1 
   110 uf_64        *              0             0             1 
   111 uf_65        *              1             0             1 
   112 uf_66        *              1             0             1 
   113 uf_67        *              1             0             1 
   114 uf_68        *              1             0             1 
   115 uf_69        *              1             0             1 
   116 uf_70        *              1             0             1 
   117 uf_71        *              0             0             1 
   118 uf_72        *              0             0             1 
   119 uf_73        *              1             0             1 
   120 uf_74        *              1             0             1 
   121 uf_75        *              1             0             1 
   122 uf_76        *              1             0             1 
   123 uf_77        *              1             0             1 
   124 uf_78        *              1             0             1 
   125 uf_79        *              0             0             1 
   126 uf_80        *              0             0             1 
   127 uf_81        *              1             0             1 
   128 uf_82        *              1             0             1 
   129 uf_83        *              1             0             1 
   130 uf_84        *              1             0             1 
   131 uf_85        *              1             0             1 
   132 uf_86        *              1             0             1 
   133 uf_87        *              0             0             1 
   134 uf_88        *              0             0             1 
   135 uf_95        *              0             0             1 
   136 uf_96        *              0             0             1 
   137 dr_1         *              1             0             1 
   138 dr_2         *              0             0             1 
   139 dr_3         *              0             0             1 
   140 dr_4         *              0             0             1 
   141 dr_5         *              0             0             1 
   142 dr_7         *              1             0             1 
   143 dr_8         *              0             0             1 
   144 dr_9         *              1             0             1 
   145 dr_10        *              0             0             1 
   146 dr_11        *              0             0             1 
   147 dr_12        *              0             0             1 
   148 dr_13        *              1             0             1 
   149 dr_14        *              0             0             1 
   150 dr_15        *              0             0             1 
   151 dr_16        *              0             0             1 
   152 dr_6         *              0             0             1 

Integer feasibility conditions:

KKT.PE: max.abs.err = 0.00e+00 on row 0
        max.rel.err = 0.00e+00 on row 0
        High quality

KKT.PB: max.abs.err = 0.00e+00 on row 0
        max.rel.err = 0.00e+00 on row 0
        High quality

End of output
